20 10
143 9 28 56 16 30 14 24 75 14
107 5 14 17 94 25 44 111 36 16
38 199 5 233 45 5 31 29 68 25
3 27 47 56 9 115 6 55 5 89
6 17 78 13 31 1 22 30 32 122
10 33 35 89 6 132 5 29 2 103
51 94 73 32 34 37 65 6 50 53
2 40 20 124 162 20 62 95 152 10
17 53 43 94 127 108 65 10 14 49
24 15 7 283 53 8 27 70 65 43
4 25 33 22 17 18 8 126 10 31
78 47 38 58 26 69 22 48 57 34
6 45 39 61 67 59 33 35 46 10
65 101 81 6 81 33 27 77 79 13
1 40 50 66 16 41 96 29 37 45
66 186 56 5 124 62 2 74 21 114
78 12 9 80 4 4 10 19 14 30
112 13 45 19 13 41 74 98 31 2
2 4 50 108 61 1 16 66 82 2
136 22 177 66 81 30 78 21 67 71
